clingo version 5.4.0
Reading from merger/Tarik/merge.lp ...
Solving...
Answer: 1
occurs(object(robot,1),action(move,(1,0)),1). occurs(object(robot,1),action(move,(1,0)),3). occurs(object(robot,1),action(move,(1,0)),4). occurs(object(robot,4),action(move,(0,-1)),1). occurs(object(robot,4),action(move,(0,-1)),4). occurs(object(robot,3),action(move,(-1,0)),1). occurs(object(robot,3),action(move,(-1,0)),2). occurs(object(robot,3),action(move,(-1,0)),4). occurs(object(robot,2),action(move,(0,1)),1). occurs(object(robot,2),action(move,(0,1)),3). occurs(object(robot,2),action(move,(0,1)),4). occurs(object(robot,4),action(move,(-1,0)),2). occurs(object(robot,2),action(move,(-1,0)),2). occurs(object(robot,3),action(move,(0,-1)),3). occurs(object(robot,4),action(move,(1,0)),3). occurs(object(robot,1),action(move,(1,0)),5). occurs(object(robot,2),action(move,(1,0)),5). occurs(object(robot,3),action(move,(0,1)),5). occurs(object(robot,4),action(move,(0,-1)),5). occurs(object(robot,4),action(move,(0,-1)),6). occurs(object(robot,3),action(move,(-1,0)),6). occurs(object(robot,2),action(move,(0,1)),6). occurs(object(robot,1),action(move,(0,0)),6).
Optimization: 9
Answer: 2
occurs(object(robot,1),action(move,(1,0)),1). occurs(object(robot,1),action(move,(1,0)),3). occurs(object(robot,1),action(move,(1,0)),4). occurs(object(robot,4),action(move,(0,-1)),1). occurs(object(robot,4),action(move,(0,-1)),4). occurs(object(robot,3),action(move,(-1,0)),1). occurs(object(robot,3),action(move,(-1,0)),2). occurs(object(robot,3),action(move,(-1,0)),4). occurs(object(robot,2),action(move,(0,1)),1). occurs(object(robot,2),action(move,(0,1)),3). occurs(object(robot,2),action(move,(0,1)),4). occurs(object(robot,4),action(move,(-1,0)),2). occurs(object(robot,2),action(move,(-1,0)),2). occurs(object(robot,3),action(move,(0,-1)),3). occurs(object(robot,4),action(move,(1,0)),3). occurs(object(robot,2),action(move,(1,0)),5). occurs(object(robot,3),action(move,(0,1)),5). occurs(object(robot,4),action(move,(0,-1)),5). occurs(object(robot,4),action(move,(0,-1)),6). occurs(object(robot,3),action(move,(-1,0)),6). occurs(object(robot,2),action(move,(0,1)),6). occurs(object(robot,1),action(move,(1,0)),6).
Optimization: 5
OPTIMUM FOUND

Models       : 2
  Optimum    : yes
Optimization : 5
Calls        : 1
Time         : 0.072s (Solving: 0.00s 1st Model: 0.00s Unsat: 0.00s)
CPU Time     : 0.041s
